SYSTEM = adsorption_opt
ENCUT = 500
PREC = Accurate
EDIFF = 1E-5
EDIFFG = -0.01
IBRION = 2
NSW = 300
ISIF = 2
ISMEAR = 0
SIGMA = 0.05
GGA = PE
IVDW = 12
LASPH = .TRUE.
ADDGRID = .TRUE.
LREAL = Auto
# ISPIN = 2  # uncomment for open-shell / transition-metal systems; set MAGMOM manually
LWAVE = .FALSE.
LCHARG = .FALSE.
